14
-1 39 100 -1 29 100 100 5 85 20 19 8 5 85 
38 -1 -1 98 98 39 -1 42 -1 23 99 35 13 61 
8 87 -1 -1 2 64 33 94 68 72 54 19 92 65 
60 25 89 -1 54 86 -1 28 -1 38 9 97 98 64 
35 69 36 38 -1 3 38 45 73 58 69 91 70 -1 
63 31 72 20 64 -1 58 4 93 62 67 19 26 -1 
-1 52 84 -1 24 28 -1 33 59 30 52 30 6 -1 
-1 23 49 -1 66 79 86 -1 89 78 62 54 6 81 
72 5 46 18 86 3 30 43 -1 83 75 82 89 22 
77 11 62 40 100 53 19 13 74 -1 25 40 68 17 
45 18 68 -1 -1 -1 22 63 92 24 -1 13 75 89 
38 2 46 -1 30 52 66 -1 81 5 10 -1 56 76 
5 13 99 58 8 70 83 87 53 12 5 7 -1 30 
-1 52 16 67 58 5 3 29 85 7 36 98 69 -1 
